NAME : a280
COMMENT : Algorithm MCMF_knn
COMMENT : Length 3188 
COMMENT : Elapsed time 0.00416413 seconds
TYPE : TOUR
DIMENSION : 280
TOUR_SECTION
211
212
213
214
215
216
217
218
219
220
221
222
223
224
225
226
227
228
229
230
231
246
232
233
234
235
236
237
238
239
240
241
244
245
247
250
251
1
280
2
242
243
248
249
278
279
3
143
144
200
201
196
197
198
199
145
146
179
180
176
181
182
183
184
185
186
187
188
189
190
191
192
193
194
195
202
203
204
205
206
207
210
209
252
253
208
254
255
256
257
258
259
260
261
262
263
264
265
139
140
141
142
147
148
149
150
157
158
159
160
177
178
151
152
119
120
121
122
123
124
30
125
126
127
154
155
153
156
22
25
23
24
17
133
18
19
20
21
128
129
130
131
132
134
270
269
268
267
266
138
137
136
135
16
271
272
273
274
275
276
277
4
5
6
7
9
8
10
11
12
13
14
15
26
27
28
29
31
32
33
34
35
39
38
37
36
40
41
42
43
60
61
62
118
44
45
46
47
48
49
50
51
52
53
54
55
56
57
58
59
63
64
65
66
67
70
71
72
73
74
75
76
77
78
79
80
81
89
90
109
108
110
87
113
88
112
111
114
82
83
84
85
86
116
115
117
68
69
91
92
93
94
95
96
97
98
99
100
101
102
103
104
105
106
107
173
174
161
175
162
163
164
165
166
167
168
169
170
171
172
EOF
